
Gurobi 7.5.2 (linux64) logging started Sat Jun 23 16:31:28 2018

Changed value of parameter LogFile to result/ilp/simNo_6-n_100-m_40-s_4-minVAF_0.05-cov_2000-k_1-fn_0.25-fp_0.0001-na_0.15.ILP.gurobiSolverLog
   Prev: gurobi.log  Default: 
Changed value of parameter TimeLimit to 86400.0
   Prev: 1e+100  Min: 0.0  Max: 1e+100  Default: 1e+100
Optimize a model with 1265601 rows, 330440 columns and 3489120 nonzeros
Variable types: 0 continuous, 330440 integer (330440 binary)
Coefficient statistics:
  Matrix range     [3e-03, 3e+00]
  Objective range  [1e+00, 2e+01]
  Bounds range     [1e+00, 1e+00]
  RHS range        [3e-01, 2e+00]
Found heuristic solution: objective -12469.91179
Presolve removed 335005 rows and 213953 columns (presolve time = 5s) ...
Presolve removed 335899 rows and 213953 columns (presolve time = 10s) ...
Presolve removed 336526 rows and 213953 columns (presolve time = 15s) ...
Presolve removed 336526 rows and 213953 columns (presolve time = 20s) ...
Presolve removed 336526 rows and 213953 columns (presolve time = 25s) ...
Presolve removed 336526 rows and 213953 columns (presolve time = 30s) ...
Presolve removed 336526 rows and 213953 columns (presolve time = 38s) ...
Presolve removed 336526 rows and 213953 columns (presolve time = 40s) ...
Presolve removed 336526 rows and 213953 columns
Presolve time: 40.24s
Presolved: 929075 rows, 116487 columns, 2577125 nonzeros
Variable types: 0 continuous, 116487 integer (116487 binary)
Presolved: 116487 rows, 1045562 columns, 2693612 nonzeros

Presolve removed 116487 rows and 1045562 columns

Root simplex log...

Iteration    Objective       Primal Inf.    Dual Inf.      Time
       0    2.0092471e+01   0.000000e+00   8.578400e+04     50s
    6062   -1.2800435e+02   0.000000e+00   4.309050e+04     50s
   19241   -2.7889606e+02   0.000000e+00   2.240734e+05     55s
   30128   -3.0640548e+02   0.000000e+00   2.317713e+05     60s
   39296   -3.1838245e+02   0.000000e+00   4.072127e+05     65s
   50183   -3.4452878e+02   0.000000e+00   1.644540e+05     70s
   61643   -3.6746504e+02   0.000000e+00   4.024896e+05     75s
   71957   -3.8158278e+02   0.000000e+00   3.931952e+05     80s
   81125   -3.9498010e+02   0.000000e+00   1.335570e+05     85s
   86651   -4.0023476e+02   0.000000e+00   0.000000e+00     89s
   86651   -4.0023476e+02   0.000000e+00   0.000000e+00     91s

Root relaxation: objective -4.002348e+02, 86651 iterations, 47.92 seconds
Total elapsed time = 143.49s
Total elapsed time = 179.00s

    Nodes    |    Current Node    |     Objective Bounds      |     Work
 Expl Unexpl |  Obj  Depth IntInf | Incumbent    BestBd   Gap | It/Node Time

     0     0 -400.23476    0 1363 -12469.912 -400.23476  96.8%     -  216s
H    0     0                    -481.2430892 -400.23476  16.8%     -  273s
     0     0 -406.22879    0 1369 -481.24309 -406.22879  15.6%     -  416s
     0     0 -406.35826    0 1385 -481.24309 -406.35826  15.6%     -  492s
     0     0 -406.61755    0 1384 -481.24309 -406.61755  15.5%     -  507s
     0     0 -406.70114    0 1384 -481.24309 -406.70114  15.5%     -  519s
     0     0 -406.75284    0 1384 -481.24309 -406.75284  15.5%     -  533s
     0     0 -406.80210    0 1386 -481.24309 -406.80210  15.5%     -  542s
     0     0 -406.80405    0 1386 -481.24309 -406.80405  15.5%     -  550s
     0     0 -407.67808    0 1847 -481.24309 -407.67808  15.3%     -  661s
     0     0 -407.71374    0 1872 -481.24309 -407.71374  15.3%     -  849s
     0     0 -409.09663    0 1479 -481.24309 -409.09663  15.0%     -  962s
     0     0 -409.12304    0 1861 -481.24309 -409.12304  15.0%     - 1097s
     0     0 -409.35868    0 1832 -481.24309 -409.35868  14.9%     - 1126s
     0     0 -410.29772    0 1775 -481.24309 -410.29772  14.7%     - 1217s
     0     0 -410.40739    0 1770 -481.24309 -410.40739  14.7%     - 1383s
     0     0 -410.41129    0 1774 -481.24309 -410.41129  14.7%     - 1399s
     0     0 -413.05331    0 1380 -481.24309 -413.05331  14.2%     - 1519s
     0     0 -413.22765    0 1462 -481.24309 -413.22765  14.1%     - 1612s
     0     0 -413.24373    0 1833 -481.24309 -413.24373  14.1%     - 1636s
     0     0 -413.24604    0 1840 -481.24309 -413.24604  14.1%     - 1647s
     0     0 -414.73163    0 1308 -481.24309 -414.73163  13.8%     - 1719s
     0     0 -414.81127    0 1305 -481.24309 -414.81127  13.8%     - 1780s
     0     0 -414.81896    0 1307 -481.24309 -414.81896  13.8%     - 1790s
     0     0 -414.81896    0 1307 -481.24309 -414.81896  13.8%     - 1798s
     0     0 -416.51134    0 1922 -481.24309 -416.51134  13.5%     - 1971s
     0     0 -416.78460    0 1809 -481.24309 -416.78460  13.4%     - 2242s
     0     0 -416.78691    0 1823 -481.24309 -416.78691  13.4%     - 2257s
     0     0 -416.78691    0 1822 -481.24309 -416.78691  13.4%     - 2271s
     0     0 -417.58879    0 1327 -481.24309 -417.58879  13.2%     - 2462s
     0     0 -417.60941    0 1321 -481.24309 -417.60941  13.2%     - 2542s
     0     0 -417.90745    0 1349 -481.24309 -417.90745  13.2%     - 2581s
     0     0 -417.90745    0 1335 -481.24309 -417.90745  13.2%     - 2596s
     0     0 -419.13698    0 1866 -481.24309 -419.13698  12.9%     - 2765s
     0     0 -419.24011    0 1899 -481.24309 -419.24011  12.9%     - 3008s
     0     0 -419.25068    0 1896 -481.24309 -419.25068  12.9%     - 3030s
     0     0 -419.25672    0 1922 -481.24309 -419.25672  12.9%     - 3046s
     0     0 -419.25692    0 1919 -481.24309 -419.25692  12.9%     - 3059s
     0     0 -420.91950    0 1881 -481.24309 -420.91950  12.5%     - 3337s
     0     0 -421.05725    0 1888 -481.24309 -421.05725  12.5%     - 3546s
     0     0 -421.09141    0 1887 -481.24309 -421.09141  12.5%     - 3571s
     0     0 -421.09141    0 1889 -481.24309 -421.09141  12.5%     - 3582s
     0     0 -421.80084    0 1879 -481.24309 -421.80084  12.4%     - 3705s
     0     0 -421.82040    0 1901 -481.24309 -421.82040  12.3%     - 3898s
     0     0 -421.82347    0 1904 -481.24309 -421.82347  12.3%     - 3923s
     0     0 -421.82347    0 1905 -481.24309 -421.82347  12.3%     - 3936s
     0     0 -423.88064    0 1847 -481.24309 -423.88064  11.9%     - 4213s
     0     0 -424.09540    0 1917 -481.24309 -424.09540  11.9%     - 4425s
     0     0 -424.17588    0 1913 -481.24309 -424.17588  11.9%     - 4448s
     0     0 -424.23489    0 1912 -481.24309 -424.23489  11.8%     - 4462s
     0     0 -424.23489    0 1926 -481.24309 -424.23489  11.8%     - 4474s
     0     0 -425.05917    0 1400 -481.24309 -425.05917  11.7%     - 4576s
     0     0 -425.42918    0 1837 -481.24309 -425.42918  11.6%     - 4780s
     0     0 -425.42918    0 1764 -481.24309 -425.42918  11.6%     - 4807s
     0     0 -425.97971    0 1751 -481.24309 -425.97971  11.5%     - 4962s
     0     0 -426.00806    0 1850 -481.24309 -426.00806  11.5%     - 5152s
     0     0 -426.02517    0 1874 -481.24309 -426.02517  11.5%     - 5177s
     0     0 -426.14447    0 1881 -481.24309 -426.14447  11.4%     - 5199s
     0     0 -426.14703    0 1884 -481.24309 -426.14703  11.4%     - 5217s
     0     0 -428.21020    0 1350 -481.24309 -428.21020  11.0%     - 5490s
     0     0 -428.44511    0 1359 -481.24309 -428.44511  11.0%     - 5578s
     0     0 -428.48188    0 1358 -481.24309 -428.48188  11.0%     - 5598s
     0     0 -428.48188    0 1359 -481.24309 -428.48188  11.0%     - 5610s
     0     0 -428.49646    0 1532 -481.24309 -428.49646  11.0%     - 5646s
     0     0 -428.56313    0 1357 -481.24309 -428.56313  10.9%     - 5757s
     0     0 -428.56962    0 1357 -481.24309 -428.56962  10.9%     - 5771s
     0     0 -428.56962    0 1357 -481.24309 -428.56962  10.9%     - 5781s
     0     0 -429.67864    0 1785 -481.24309 -429.67864  10.7%     - 5981s
     0     0 -430.25554    0 1834 -481.24309 -430.25554  10.6%     - 6262s
     0     0 -430.38210    0 1840 -481.24309 -430.38210  10.6%     - 6302s
     0     0 -430.42513    0 1845 -481.24309 -430.42513  10.6%     - 6328s
     0     0 -430.42513    0 1843 -481.24309 -430.42513  10.6%     - 6340s
     0     0 -431.68595    0 1837 -481.24309 -431.68595  10.3%     - 6497s
     0     0 -432.39133    0 1837 -481.24309 -432.39133  10.2%     - 6774s
     0     0 -432.40063    0 1834 -481.24309 -432.40063  10.1%     - 6800s
     0     0 -432.40063    0 1837 -481.24309 -432.40063  10.1%     - 6810s
     0     0 -433.22484    0 1832 -481.24309 -433.22484  10.0%     - 6965s
     0     0 -433.47264    0 1866 -481.24309 -433.47264  9.93%     - 7082s
     0     0 -433.48317    0 1865 -481.24309 -433.48317  9.92%     - 7097s
     0     0 -433.51131    0 1861 -481.24309 -433.51131  9.92%     - 7109s
     0     0 -433.52074    0 1863 -481.24309 -433.52074  9.92%     - 7121s
     0     0 -433.52101    0 1865 -481.24309 -433.52101  9.92%     - 7131s
     0     0 -434.98293    0 1836 -481.24309 -434.98293  9.61%     - 7233s
     0     0 -435.00687    0 1848 -481.24309 -435.00687  9.61%     - 7409s
     0     0 -435.04185    0 1857 -481.24309 -435.04185  9.60%     - 7423s
     0     0 -435.11028    0 1859 -481.24309 -435.11028  9.59%     - 7442s
     0     0 -435.18539    0 1858 -481.24309 -435.18539  9.57%     - 7457s
     0     0 -435.18539    0 1863 -481.24309 -435.18539  9.57%     - 7468s
     0     0 -435.94984    0 1838 -481.24309 -435.94984  9.41%     - 7511s
     0     0 -435.98999    0 1829 -481.24309 -435.98999  9.40%     - 7626s
     0     0 -436.02180    0 1845 -481.24309 -436.02180  9.40%     - 7645s
     0     0 -436.03480    0 1851 -481.24309 -436.03480  9.39%     - 7659s
     0     0 -436.03480    0 1855 -481.24309 -436.03480  9.39%     - 7671s
     0     0 -437.64779    0 1834 -481.24309 -437.64779  9.06%     - 7842s
     0     0 -437.72049    0 1841 -481.24309 -437.72049  9.04%     - 8005s
     0     0 -437.77757    0 1846 -481.24309 -437.77757  9.03%     - 8024s
     0     0 -437.78408    0 1847 -481.24309 -437.78408  9.03%     - 8040s
     0     0 -437.78513    0 1850 -481.24309 -437.78513  9.03%     - 8052s
     0     0 -438.55042    0 1746 -481.24309 -438.55042  8.87%     - 8129s
     0     0 -438.66667    0 1843 -481.24309 -438.66667  8.85%     - 8319s
     0     0 -438.79972    0 1853 -481.24309 -438.79972  8.82%     - 8370s
     0     0 -438.82051    0 1861 -481.24309 -438.82051  8.82%     - 8388s
     0     0 -438.83454    0 1869 -481.24309 -438.83454  8.81%     - 8402s
     0     0 -438.84593    0 1863 -481.24309 -438.84593  8.81%     - 8415s
     0     0 -438.84915    0 1868 -481.24309 -438.84915  8.81%     - 8428s
     0     0 -439.93500    0 1818 -481.24309 -439.93500  8.58%     - 8569s
     0     0 -440.30378    0 1826 -481.24309 -440.30378  8.51%     - 8756s
     0     0 -440.31386    0 1834 -481.24309 -440.31386  8.50%     - 8773s
     0     0 -440.31700    0 1833 -481.24309 -440.31700  8.50%     - 8786s
     0     0 -441.35806    0 1823 -481.24309 -441.35806  8.29%     - 8871s
     0     0 -441.36954    0 1832 -481.24309 -441.36954  8.29%     - 8983s
     0     0 -441.38652    0 1829 -481.24309 -441.38652  8.28%     - 9003s
     0     0 -441.42999    0 1830 -481.24309 -441.42999  8.27%     - 9019s
     0     0 -441.43501    0 1829 -481.24309 -441.43501  8.27%     - 9033s
     0     0 -441.43958    0 1833 -481.24309 -441.43958  8.27%     - 9046s
     0     0 -441.44081    0 1835 -481.24309 -441.44081  8.27%     - 9057s
     0     0 -442.72092    0 1420 -481.24309 -442.72092  8.00%     - 9218s
     0     0 -443.14079    0 1445 -481.24309 -443.14079  7.92%     - 9509s
     0     0 -443.44744    0 1820 -481.24309 -443.44744  7.85%     - 9654s
     0     0 -443.50295    0 1820 -481.24309 -443.50295  7.84%     - 9692s
     0     0 -443.53409    0 1824 -481.24309 -443.53409  7.84%     - 9712s
     0     0 -443.55422    0 1834 -481.24309 -443.55422  7.83%     - 9727s
     0     0 -443.55422    0 1842 -481.24309 -443.55422  7.83%     - 9737s
     0     0 -444.66973    0 1938 -481.24309 -444.66973  7.60%     - 9809s
     0     0 -445.09930    0 1853 -481.24309 -445.09930  7.51%     - 10001s
     0     0 -445.14457    0 1858 -481.24309 -445.14457  7.50%     - 10023s
     0     0 -445.15023    0 1860 -481.24309 -445.15023  7.50%     - 10036s
     0     0 -445.16424    0 1859 -481.24309 -445.16424  7.50%     - 10055s
     0     0 -445.16864    0 1845 -481.24309 -445.16864  7.50%     - 10067s
     0     0 -445.39149    0 1841 -481.24309 -445.39149  7.45%     - 10104s
     0     0 -445.51038    0 1963 -481.24309 -445.51038  7.43%     - 10201s
     0     0 -445.57644    0 1852 -481.24309 -445.57644  7.41%     - 10222s
     0     0 -445.63151    0 1857 -481.24309 -445.63151  7.40%     - 10241s
     0     0 -445.65200    0 1872 -481.24309 -445.65200  7.40%     - 10257s
     0     0 -445.66204    0 1866 -481.24309 -445.66204  7.39%     - 10269s
     0     0 -445.66300    0 1874 -481.24309 -445.66300  7.39%     - 10281s
     0     0 -446.67048    0 1946 -481.24309 -446.67048  7.18%     - 10327s
     0     0 -446.80258    0 1857 -481.24309 -446.80258  7.16%     - 10534s
     0     0 -446.88913    0 1839 -481.24309 -446.88913  7.14%     - 10558s
     0     0 -446.91839    0 1840 -481.24309 -446.91839  7.13%     - 10575s
     0     0 -446.92693    0 1844 -481.24309 -446.92693  7.13%     - 10589s
     0     0 -446.95152    0 1952 -481.24309 -446.95152  7.13%     - 10608s
     0     0 -446.95986    0 1952 -481.24309 -446.95986  7.12%     - 10624s
     0     0 -446.95986    0 1955 -481.24309 -446.95986  7.12%     - 10635s
     0     0 -447.31755    0 1938 -481.24309 -447.31755  7.05%     - 10689s
     0     0 -447.41902    0 1852 -481.24309 -447.41902  7.03%     - 10813s
     0     0 -447.50934    0 1854 -481.24309 -447.50934  7.01%     - 10835s
     0     0 -447.59586    0 1956 -481.24309 -447.59586  6.99%     - 10856s
     0     0 -447.61471    0 1963 -481.24309 -447.61471  6.99%     - 10871s
     0     0 -447.61471    0 1972 -481.24309 -447.61471  6.99%     - 10879s
     0     0 -448.53875    0 1963 -481.24309 -448.53875  6.80%     - 10947s
     0     0 -448.71131    0 1844 -481.24309 -448.71131  6.76%     - 11113s
     0     0 -448.76346    0 1889 -481.24309 -448.76346  6.75%     - 11132s
     0     0 -448.78138    0 1887 -481.24309 -448.78138  6.75%     - 11151s
     0     0 -448.80472    0 1897 -481.24309 -448.80472  6.74%     - 11169s
     0     0 -448.80951    0 1897 -481.24309 -448.80951  6.74%     - 11180s
     0     0 -449.33933    0 1476 -481.24309 -449.33933  6.63%     - 11247s
     0     0 -449.45461    0 1492 -481.24309 -449.45461  6.61%     - 11339s
     0     0 -449.56937    0 1478 -481.24309 -449.56937  6.58%     - 11357s
     0     0 -449.57649    0 1499 -481.24309 -449.57649  6.58%     - 11371s
     0     0 -449.58342    0 1488 -481.24309 -449.58342  6.58%     - 11386s
     0     0 -449.58342    0 1492 -481.24309 -449.58342  6.58%     - 11396s
     0     0 -449.99594    0 1489 -481.24309 -449.99594  6.49%     - 11520s
     0     0 -450.13008    0 1878 -481.24309 -450.13008  6.47%     - 11752s
     0     0 -450.24652    0 1871 -481.24309 -450.24652  6.44%     - 11795s
     0     0 -450.27137    0 1872 -481.24309 -450.27137  6.44%     - 11818s
     0     0 -450.28202    0 1880 -481.24309 -450.28202  6.43%     - 11832s
     0     0 -450.28354    0 1885 -481.24309 -450.28354  6.43%     - 11846s
     0     0 -450.90385    0 1812 -481.24309 -450.90385  6.30%     - 11914s
     0     0 -451.07839    0 1571 -481.24309 -451.07839  6.27%     - 12154s
     0     0 -451.26001    0 1919 -481.24309 -451.26001  6.23%     - 12232s
     0     0 -451.31619    0 1941 -481.24309 -451.31619  6.22%     - 12252s
     0     0 -451.34677    0 1602 -481.24309 -451.34677  6.21%     - 12268s
     0     0 -451.34819    0 1608 -481.24309 -451.34819  6.21%     - 12279s
     0     0 -451.82941    0 1937 -481.24309 -451.82941  6.11%     - 12396s
     0     0 -451.99426    0 1941 -481.24309 -451.99426  6.08%     - 12557s
     0     0 -451.99426    0 1947 -481.24309 -451.99426  6.08%     - 12576s
     0     0 -452.30338    0 1937 -481.24309 -452.30338  6.01%     - 12634s
     0     0 -452.35959    0 1952 -481.24309 -452.35959  6.00%     - 12814s
     0     0 -452.40880    0 1956 -481.24309 -452.40880  5.99%     - 12835s
     0     0 -452.42793    0 1964 -481.24309 -452.42793  5.99%     - 12856s
     0     0 -452.42917    0 1965 -481.24309 -452.42917  5.99%     - 12867s
     0     0 -453.34026    0 1946 -481.24309 -453.34026  5.80%     - 13189s
     0     0 -453.48549    0 1953 -481.24309 -453.48549  5.77%     - 13404s
     0     0 -453.59358    0 1553 -481.24309 -453.59358  5.75%     - 13486s
     0     0 -453.63038    0 1950 -481.24309 -453.63038  5.74%     - 13534s
     0     0 -453.63987    0 1957 -481.24309 -453.63987  5.74%     - 13556s
     0     0 -453.64245    0 1957 -481.24309 -453.64245  5.74%     - 13571s
     0     0 -454.36064    0 1930 -481.24309 -454.36064  5.59%     - 13787s
     0     0 -454.53319    0 1939 -481.24309 -454.53319  5.55%     - 13971s
     0     0 -454.59996    0 1956 -481.24309 -454.59996  5.54%     - 14026s
     0     0 -454.60337    0 1962 -481.24309 -454.60337  5.54%     - 14038s
     0     0 -455.50009    0 1808 -481.24309 -455.50009  5.35%     - 14214s
     0     0 -455.56337    0 1827 -481.24309 -455.56337  5.34%     - 14363s
     0     0 -455.62280    0 1849 -481.24309 -455.62280  5.32%     - 14521s
     0     0 -455.65072    0 1854 -481.24309 -455.65072  5.32%     - 14552s
     0     0 -455.68051    0 1859 -481.24309 -455.68051  5.31%     - 14571s
     0     0 -455.68597    0 1859 -481.24309 -455.68597  5.31%     - 14583s
     0     0 -455.94457    0 1932 -481.24309 -455.94457  5.26%     - 14653s
     0     0 -456.10023    0 1838 -481.24309 -456.10023  5.22%     - 14854s
     0     0 -456.14720    0 1924 -481.24309 -456.14720  5.21%     - 14921s
     0     0 -456.15209    0 1944 -481.24309 -456.15209  5.21%     - 14940s
     0     0 -456.36061    0 1951 -481.24309 -456.36061  5.17%     - 15062s
     0     0 -456.39287    0 1934 -481.24309 -456.39287  5.16%     - 15258s
     0     0 -456.42402    0 1947 -481.24309 -456.42402  5.16%     - 15285s
     0     0 -456.42869    0 1941 -481.24309 -456.42869  5.16%     - 15305s
     0     0 -456.53255    0 1950 -481.24309 -456.53255  5.13%     - 15351s
     0     0 -456.72364    0 1941 -481.24309 -456.72364  5.10%     - 15540s
     0     0 -456.77409    0 1941 -481.24309 -456.77409  5.08%     - 15562s
     0     0 -456.77685    0 1959 -481.24309 -456.77685  5.08%     - 15577s
     0     0 -456.90712    0 1907 -481.24309 -456.90712  5.06%     - 15619s
     0     0 -457.06765    0 1948 -481.24309 -457.06765  5.02%     - 15866s
     0     0 -457.11044    0 1498 -481.24309 -457.11044  5.01%     - 15892s
     0     0 -457.11094    0 1498 -481.24309 -457.11094  5.01%     - 15906s
     0     0 -457.33926    0 1956 -481.24309 -457.33926  4.97%     - 16004s
     0     0 -457.41908    0 1964 -481.24309 -457.41908  4.95%     - 16130s
     0     0 -457.43898    0 2008 -481.24309 -457.43898  4.95%     - 16148s
     0     0 -457.44163    0 2007 -481.24309 -457.44163  4.95%     - 16158s
     0     0 -457.48435    0 1951 -481.24309 -457.48435  4.94%     - 16185s
     0     0 -457.63160    0 1952 -481.24309 -457.63160  4.91%     - 16389s
     0     0 -457.69459    0 1951 -481.24309 -457.69459  4.89%     - 16410s
     0     0 -457.69842    0 1955 -481.24309 -457.69842  4.89%     - 16421s
     0     0 -457.77005    0 1957 -481.24309 -457.77005  4.88%     - 16450s
     0     0 -457.77495    0 1969 -481.24309 -457.77495  4.88%     - 16461s
     0     0 -457.86110    0 1956 -481.24309 -457.86110  4.86%     - 16493s
     0     0 -457.88593    0 1961 -481.24309 -457.88593  4.85%     - 16563s
     0     0 -457.91701    0 1960 -481.24309 -457.91701  4.85%     - 16579s
     0     0 -457.92883    0 1962 -481.24309 -457.92883  4.84%     - 16595s
     0     0 -457.93196    0 1959 -481.24309 -457.93196  4.84%     - 16604s
     0     0 -458.16820    0 1672 -481.24309 -458.16820  4.79%     - 16641s
     0     0 -458.21814    0 1673 -481.24309 -458.21814  4.78%     - 16719s
     0     0 -458.23362    0 1670 -481.24309 -458.23362  4.78%     - 16736s
     0     0 -458.24186    0 1680 -481.24309 -458.24186  4.78%     - 16746s
     0     0 -458.24452    0 1681 -481.24309 -458.24452  4.78%     - 16757s
     0     0 -458.28771    0 1676 -481.24309 -458.28771  4.77%     - 16784s
     0     0 -458.43022    0 1673 -481.24309 -458.43022  4.74%     - 16825s
     0     0 -458.52054    0 1673 -481.24309 -458.52054  4.72%     - 16843s
     0     0 -458.52581    0 1681 -481.24309 -458.52581  4.72%     - 16856s
     0     0 -458.66618    0 1673 -481.24309 -458.66618  4.69%     - 16890s
     0     0 -458.77951    0 1677 -481.24309 -458.77951  4.67%     - 16912s
     0     0 -458.81593    0 1669 -481.24309 -458.81593  4.66%     - 16927s
     0     0 -458.84495    0 1677 -481.24309 -458.84495  4.65%     - 16942s
     0     0 -458.85241    0 1678 -481.24309 -458.85241  4.65%     - 16955s
     0     0 -458.86539    0 1677 -481.24309 -458.86539  4.65%     - 16970s
     0     0 -458.87186    0 1678 -481.24309 -458.87186  4.65%     - 16981s
     0     0 -458.87194    0 1680 -481.24309 -458.87194  4.65%     - 16990s
     0     0 -458.97867    0 2002 -481.24309 -458.97867  4.63%     - 17022s
     0     0 -459.10262    0 1997 -481.24309 -459.10262  4.60%     - 17193s
     0     0 -459.12659    0 2000 -481.24309 -459.12659  4.60%     - 17209s
     0     0 -459.12834    0 2000 -481.24309 -459.12834  4.60%     - 17219s
     0     0 -459.12948    0 2006 -481.24309 -459.12948  4.60%     - 17242s
     0     0 -459.13092    0 2004 -481.24309 -459.13092  4.59%     - 17339s
     0     0 -459.47670    0 1986 -481.24309 -459.47670  4.52%     - 17411s
     0     0 -459.51050    0 2003 -481.24309 -459.51050  4.52%     - 17571s
     0     0 -459.51217    0 2004 -481.24309 -459.51217  4.52%     - 17581s
     0     0 -459.51722    0 2004 -481.24309 -459.51722  4.51%     - 17609s
     0     0 -459.51722    0 1967 -481.24309 -459.51722  4.51%     - 17740s
     0     2 -459.51736    0 1963 -481.24309 -459.51736  4.51%     - 17941s
     1     3 -459.96391    1 1831 -481.24309 -459.51980  4.51%  2373 17964s
     2     4 -462.75809    2 1291 -481.24309 -459.51980  4.51%  3170 18009s
     3     5 -462.75809    3 1291 -481.24309 -459.51980  4.51%  2121 18011s
     4     6 -463.34824    4 1287 -481.24309 -459.51980  4.51%  1705 18022s
     5     5     cutoff    4      -481.24309 -459.51980  4.51%  3941 18165s
     6     6 -465.11867    5 1269 -481.24309 -459.51980  4.51%  3382 18179s
     7     7 -465.11867    6 1276 -481.24309 -459.51980  4.51%  2900 18180s
     9     7     cutoff    7      -481.24309 -459.51980  4.51%  3719 18314s
    10     8 -465.70882    8 1270 -481.24309 -459.51980  4.51%  3349 18315s
    11     9 -466.29896    9 1267 -481.24309 -459.51980  4.51%  3087 18320s
    12     8     cutoff    9      -481.24309 -459.51980  4.51%  4471 18499s
    13     9 -466.88911   10 1264 -481.24309 -459.51980  4.51%  4138 18503s
    14     8     cutoff   10      -481.24309 -459.51980  4.51%  3905 18521s
    16    10 -467.47925   12 1262 -481.24309 -459.51980  4.51%  3437 18530s
    17     9     cutoff   12      -481.24309 -459.51980  4.51%  3289 18546s
    19    11 -468.06940   14 1257 -481.24309 -459.51980  4.51%  2960 18556s
    20    10     cutoff   14      -481.24309 -459.51980  4.51%  3283 18647s
    21    11 -468.06940   15 1265 -481.24309 -459.51980  4.51%  3130 18650s
    22    12 -468.65954   16 1264 -481.24309 -459.51980  4.51%  3002 18656s
    23    11     cutoff   16      -481.24309 -459.51980  4.51%  3496 18765s
    25    13 -469.24969   18 1261 -481.24309 -459.51980  4.51%  3224 18772s
    26    12     cutoff   18      -481.24309 -459.51980  4.51%  3171 18795s
    27    13 -469.24969   19 1261 -481.24309 -459.51980  4.51%  3054 18814s
    28    14 -469.83983   20 1260 -481.24309 -459.51980  4.51%  2951 18815s
    29    13     cutoff   20      -481.24309 -459.51980  4.51%  2882 18831s
    31    15 -470.42998   22 1264 -481.24309 -459.51980  4.51%  2701 18835s
    32    14     cutoff   22      -481.24309 -459.51980  4.51%  2688 18866s
    33    15 -471.02012   23 1259 -481.24309 -459.51980  4.51%  2611 18870s
    34    14     cutoff   23      -481.24309 -459.51980  4.51%  2554 18881s
    38    18 -472.20041   27 1261 -481.24309 -459.51980  4.51%  2297 18889s
    39    17     cutoff   27      -481.24309 -459.51980  4.51%  2257 18901s
    41    19 -475.74128   29 1240 -481.24309 -459.51980  4.51%  2155 18910s
    42    20 -476.33143   29 1203 -481.24309 -459.51980  4.51%  2112 18916s
    44    22 -478.69201   31 1153 -481.24309 -459.51980  4.51%  2027 18923s
    45    23 -479.28215   32 1156 -481.24309 -459.51980  4.51%  1989 18926s
    48    24 -480.46245   34 1153 -481.24309 -459.51980  4.51%  1867 18930s
    53    23     cutoff   36      -481.24309 -459.51980  4.51%  1692 18935s
    54    24 -461.89468    1 1355 -481.24309 -459.99849  4.41%  1710 18984s
    55    25 -463.46840    2 1364 -481.24309 -459.99849  4.41%  1700 19005s
    56    26 -465.14048    3 1357 -481.24309 -459.99849  4.41%  1684 19019s
    57    27 -467.20599    4 1075 -481.24309 -459.99849  4.41%  1662 19028s
    58    28 -468.38628    5 1059 -481.24309 -459.99849  4.41%  1635 19031s
    59    29 -468.97642    6 1028 -481.24309 -459.99849  4.41%  1611 19035s
    61    31 -477.82860    7  839 -481.24309 -459.99849  4.41%  1622 19074s
    62    32 -478.41874    8  816 -481.24309 -459.99849  4.41%  1600 19079s
    63    33 -478.44662    9  819 -481.24309 -459.99849  4.41%  1576 19082s
    64    34 -479.18046    9  704 -481.24309 -459.99849  4.41%  1554 19087s
    66    36 -481.14761   10  635 -481.24309 -459.99849  4.41%  1509 19091s
    71    35 -481.14761   11  590 -481.24309 -459.99849  4.41%  1405 19096s
    75    33     cutoff   12      -481.24309 -459.99849  4.41%  1334 19100s
    77    35 -481.14761   12  650 -481.24309 -459.99849  4.41%  1301 19106s
    82    34     cutoff   13      -481.24309 -459.99849  4.41%  1225 19110s
    85    33     cutoff   14      -481.24309 -459.99849  4.41%  1183 19115s
    87    33 -461.59713    2 1887 -481.24309 -461.59713  4.08%  1191 19154s
    88    34 -463.52846    3 1593 -481.24309 -461.61138  4.08%  1277 19232s
    89    35 -464.00687    4 1593 -481.24309 -461.61138  4.08%  1277 19254s
    90    36 -464.52185    5 1562 -481.24309 -461.61138  4.08%  1278 19279s
    91    37 -464.52197    6 1575 -481.24309 -461.61138  4.08%  1264 19282s
    92    38 -465.00430    7 1573 -481.24309 -461.61138  4.08%  1268 19308s
    93    39 -465.00433    8 1571 -481.24309 -461.61138  4.08%  1255 19310s
    95    41 -465.07239   10 1928 -481.24309 -461.61138  4.08%  1233 19320s
    96    42 -467.18152   11 1432 -481.24309 -461.61138  4.08%  1319 19399s
    97    43 -470.04794   12 1400 -481.24309 -461.61138  4.08%  1326 19424s
    98    44 -472.11345   13 1390 -481.24309 -461.61138  4.08%  1337 19449s
    99    45 -472.99866   14 1122 -481.24309 -461.61138  4.08%  1332 19460s
   101    47 -473.58881   16 1097 -481.24309 -461.61138  4.08%  1314 19476s
   102    48 -478.90012   16  999 -481.24309 -461.61138  4.08%  1404 19618s
   103    49 -479.49026   17  967 -481.24309 -461.61138  4.08%  1394 19626s
   104    50 -480.08041   18  940 -481.24309 -461.61138  4.08%  1385 19632s
   105    51 -480.67055   19  930 -481.24309 -461.61138  4.08%  1376 19638s
   106    50     cutoff   20      -481.24309 -461.61138  4.08%  1366 19642s
   107    49     cutoff   20      -481.24309 -461.61138  4.08%  1355 19645s
   108    50 -480.67055   19  872 -481.24309 -461.61138  4.08%  1350 19653s
   110    50 -480.67055   20  833 -481.24309 -461.61138  4.08%  1326 19656s
   111    49     cutoff   21      -481.24309 -461.61138  4.08%  1317 19660s
   113    51 -480.94048   22  828 -481.24309 -461.61138  4.08%  1299 19668s
   114    50     cutoff   22      -481.24309 -461.61138  4.08%  1290 19671s
   116    48     cutoff   23      -481.24309 -461.61138  4.08%  1272 19677s
   117    49 -477.38649    3 1559 -481.24309 -461.89468  4.02%  1698 20957s
   118    50 -478.99955    4 1444 -481.24309 -461.89468  4.02%  1697 20997s
   119    49     cutoff    5      -481.24309 -461.89468  4.02%  1705 21033s
   120    48     cutoff    4      -481.24309 -461.89468  4.02%  3818 30498s
   121    47     cutoff    5      -481.24309 -461.89468  4.02%  3795 30513s
   122    46     cutoff    2      -481.24309 -462.75809  3.84%  5173 38032s
   123    45     cutoff    3      -481.24309 -463.36916  3.71%  6574 45125s
   124    46 -469.24969    5 1335 -481.24309 -463.48409  3.69%  6656 45432s
   126    48 -469.54476    7 1321 -481.24309 -463.48409  3.69%  6556 45444s
   127    49 -470.13490    8 1333 -481.24309 -463.48409  3.69%  6512 45455s
   128    48     cutoff    9      -481.24309 -463.48409  3.69%  7087 47615s
   130    50 -470.72505   10 1305 -481.24309 -463.48409  3.69%  6982 47626s
   131    51 -471.11848   11 1298 -481.24309 -463.48409  3.69%  6932 47635s
   133    53 -471.31520   13 1302 -481.24309 -463.48409  3.69%  6831 47645s
   134    54 -474.41346   14 1323 -481.24309 -463.48409  3.69%  6814 47694s
   135    55 -476.33143   15 1303 -481.24309 -463.48409  3.69%  6770 47708s
   136    54     cutoff   16      -481.24309 -463.48409  3.69%  6731 47727s
   137    55 -477.80679   16 1300 -481.24309 -463.48409  3.69%  6688 47738s
   138    56 -481.05259   17 1284 -481.24309 -463.48409  3.69%  6648 47753s
   140    54     cutoff   18      -481.24309 -463.48409  3.69%  6554 47755s
   141    55 -479.87230   17 1280 -481.24309 -463.48409  3.69%  6514 47768s
   142    56 -480.46245   18 1279 -481.24309 -463.48409  3.69%  6470 47772s
   143    57 -481.05259   19 1277 -481.24309 -463.48409  3.69%  6426 47775s
   147    53     cutoff   18      -481.24309 -463.48409  3.69%  6254 47782s
   148    54 -478.98708   15 1284 -481.24309 -463.48409  3.69%  6299 48013s
   149    55 -479.57723   16 1279 -481.24309 -463.48409  3.69%  6263 48027s
   150    54     cutoff   17      -481.24309 -463.48409  3.69%  6667 49698s
   151    55 -480.16737   17 1238 -481.24309 -463.48409  3.69%  6629 49708s
   152    56 -480.75752   18 1234 -481.24309 -463.48409  3.69%  6587 49713s
   153    55     cutoff   19      -481.24309 -463.48409  3.69%  6545 49715s
   155    53     cutoff   18      -481.24309 -463.48409  3.69%  6464 49720s
   156    52     cutoff   16      -481.24309 -463.48409  3.69%  6425 49728s
   157    51     cutoff    3      -481.24309 -463.52886  3.68%  6994 52914s
   158    52 -467.63178    4 1534 -481.24309 -464.00709  3.58%  7053 53102s
   159    53 -469.26170    5 1516 -481.24309 -464.00709  3.58%  7018 53118s
   160    54 -471.73469    6 1506 -481.24309 -464.00709  3.58%  6995 53148s
   161    53     cutoff    7      -481.24309 -464.00709  3.58%  8748 65824s
   162    54 -474.76972    7 1137 -481.24309 -464.00709  3.58%  8762 65982s
   163    55 -475.35987    8 1136 -481.24309 -464.00709  3.58%  8713 65996s
   164    56 -475.95001    9 1106 -481.24309 -464.00709  3.58%  8664 66006s
   165    57 -476.54016   10 1098 -481.24309 -464.00709  3.58%  8616 66015s
   167    59 -477.13030   12 1126 -481.24309 -464.00709  3.58%  8515 66023s
   168    60 -478.31059   13 1056 -481.24309 -464.00709  3.58%  8468 66034s
   169    61 -478.31059   14 1080 -481.24309 -464.00709  3.58%  8418 66036s
   170    62 -478.90074   15 1051 -481.24309 -464.00709  3.58%  8373 66042s
   171    63 -479.49088   16 1047 -481.24309 -464.00709  3.58%  8326 66049s
   173    65 -480.08103   18 1009 -481.24309 -464.00709  3.58%  8232 66057s
   174    66 -480.67117   19 1008 -481.24309 -464.00709  3.58%  8188 66063s
   175    67 -480.67117   20 1041 -481.24309 -464.00709  3.58%  8142 66068s
   176    66     cutoff   21      -481.24309 -464.00709  3.58%  8097 66073s
   177    65     cutoff   21      -481.24309 -464.00709  3.58%  8052 66076s
   179    63     cutoff   19      -481.24309 -464.00709  3.58%  7965 66082s
   180    64 -468.19130    5 1445 -481.24309 -464.52705  3.47%  8001 66224s
   181    65 -471.88954    6 1402 -481.24309 -464.52705  3.47%  8004 66295s
   182    66 -473.46326    7 1405 -481.24309 -464.52705  3.47%  8024 66483s
   183    67 -475.58173    8 1407 -481.24309 -464.52705  3.47%  8026 66585s
   184    68 -475.92220    9 1178 -481.24309 -464.52705  3.47%  7984 66593s
   186    70 -476.51234   11 1129 -481.24309 -464.52705  3.47%  7903 66609s
   187    71 -477.69263   12 1095 -481.24309 -464.52705  3.47%  7864 66619s
   188    72 -478.28278   13 1090 -481.24309 -464.52705  3.47%  7825 66627s
   189    73 -478.57785   14 1112 -481.24309 -464.52705  3.47%  7787 66638s
   190    74 -478.87292   15 1121 -481.24309 -464.52705  3.47%  7747 66644s
   191    75 -478.87292   16 1117 -481.24309 -464.52705  3.47%  7707 66645s
   192    76 -479.46307   17 1076 -481.24309 -464.52705  3.47%  7668 66652s
   193    77 -480.05321   18 1070 -481.24309 -464.52705  3.47%  7631 66659s
   194    78 -480.64336   19 1065 -481.24309 -464.52705  3.47%  7594 66664s
   195    79 -480.64336   20 1037 -481.24309 -464.52705  3.47%  7555 66665s
   196    80 -481.23350   21 1037 -481.24309 -464.52705  3.47%  7519 66670s
   201    77 -469.99373    6 1440 -481.24309 -464.52828  3.47%  7410 66889s
   202    78 -472.55103    7 1428 -481.24309 -464.52828  3.47%  7420 67023s
   203    79 -474.51818    8 1417 -481.24309 -464.52828  3.47%  7469 67293s
   204    80 -476.48533    9 1155 -481.24309 -464.52828  3.47%  7450 67325s
   205    81 -477.07547   10 1152 -481.24309 -464.52828  3.47%  7418 67339s
   206    80     cutoff   10      -481.24309 -464.52828  3.47%  7472 67653s
   208    80     cutoff   11      -481.24309 -464.52828  3.47%  7543 68217s
   209    81 -477.66562   12 1159 -481.24309 -464.52828  3.47%  7511 68226s
   210    80     cutoff   12      -481.24309 -464.52828  3.47%  7689 69182s
   211    81 -478.25576   13 1102 -481.24309 -464.52828  3.47%  7658 69198s
   212    80     cutoff   13      -481.24309 -464.52828  3.47%  7731 69622s
   213    81 -478.64919   14 1388 -481.24309 -464.52828  3.47%  7696 69631s
   214    80     cutoff   14      -481.24309 -464.52828  3.47%  7667 69648s
   215    81 -478.84591   15 1172 -481.24309 -464.52828  3.47%  7632 69652s
   218    82     cutoff   16      -481.24309 -464.52828  3.47%  7529 69661s
   219    81     cutoff   17      -481.24309 -464.52828  3.47%  7497 69670s
   220    82 -479.43605   18 1099 -481.24309 -464.52828  3.47%  7465 69676s
   221    81     cutoff   18      -481.24309 -464.52828  3.47%  7433 69682s
   223    83 -480.02620   20 1099 -481.24309 -464.52828  3.47%  7369 69690s
   224    84 -480.61634   21 1090 -481.24309 -464.52828  3.47%  7339 69696s
   225    83     cutoff   21      -481.24309 -464.52828  3.47%  7307 69701s
   226    84 -481.20649   22 1059 -481.24309 -464.52828  3.47%  7277 69705s
   230    82 -469.79737    7 1436 -481.24309 -465.00434  3.37%  7210 69882s
   231    83 -471.66616    8 1434 -481.24309 -465.00434  3.37%  7184 69901s
   232    84 -473.83003    9 1419 -481.24309 -465.00434  3.37%  7162 69926s
   233    85 -475.89554   10 1389 -481.24309 -465.00434  3.37%  7137 69945s
   234    86 -477.07583   11 1140 -481.24309 -465.00434  3.37%  7109 69954s
   235    87 -477.07583   12 1143 -481.24309 -465.00434  3.37%  7079 69956s
   236    88 -477.66597   13 1105 -481.24309 -465.00434  3.37%  7051 69962s
   237    89 -478.25612   14 1099 -481.24309 -465.00434  3.37%  7023 69967s
   238    90 -478.55119   15 1364 -481.24309 -465.00434  3.37%  6995 69975s
   239    91 -478.84626   16 1139 -481.24309 -465.00434  3.37%  6967 69980s
   240    92 -480.32163   17 1139 -481.24309 -465.00434  3.37%  6941 69991s
   241    93 -480.91177   18 1138 -481.24309 -465.00434  3.37%  6914 69995s
   246    90     cutoff   18      -481.24309 -465.00434  3.37%  6775 70002s
   247    91 -469.37568    9 1414 -481.24309 -465.00546  3.37%  6777 70068s
   248    90     cutoff   10      -481.24309 -465.00546  3.37%  7496 76641s
   249    91 -472.42476   10 1432 -481.24309 -465.00546  3.37%  7548 77094s
   250    92 -473.99848   11 1407 -481.24309 -465.00546  3.37%  7535 77141s
   251    91     cutoff   11      -481.24309 -465.00546  3.37%  8459 85404s
   252    92 -476.75249   12 1124 -481.24309 -465.00546  3.37%  8465 85573s
   253    93 -477.34264   13 1101 -481.24309 -465.00546  3.37%  8435 85586s
   254    94 -477.93278   14 1361 -481.24309 -465.00546  3.37%  8405 85593s
   255    93     cutoff   13      -481.24309 -465.00546  3.37%  8471 86096s
   256    92     cutoff   14      -481.24309 -465.00546  3.37%  8515 86379s

Cutting planes:
  Gomory: 1
  Zero half: 779

Explored 257 nodes (2743491 simplex iterations) in 86400.74 seconds
Thread count was 1 (of 80 available processors)

Solution count 2: -481.243 -12469.9 

Time limit reached
Best objective -4.812430891895e+02, best bound -4.650054589500e+02, gap 3.3741%
